Reading model...
...model read.
creating competitive generators file...
...competitive generators recorded.
Loading data...
.. real-time data read.
Compiling instance...
...instance created.
Creating Offer Mitigation (model will solve as dispatch if TRUE)...
...storage offer mitigation file created
Converting model to MPEC...
...converted
NOTE: initial MIP solve with only storage competitive to get feasible solution
Solving...

Welcome to IBM(R) ILOG(R) CPLEX(R) Interactive Optimizer 12.9.0.0
  with Simplex, Mixed Integer & Barrier Optimizers
5725-A06 5725-A29 5724-Y48 5724-Y49 5724-Y54 5724-Y55 5655-Y21
Copyright IBM Corp. 1988, 2019.  All Rights Reserved.

Type 'help' for a list of available commands.
Type 'help' followed by a command name for more
information on commands.

CPLEX> Logfile 'cplex.log' closed.
Logfile 'C:\Users\llavin\Desktop\test826\logs\tmpvztzv9yp.cplex.log' open.
CPLEX> New value for parallel optimization mode: -1
CPLEX> New value for mixed integer optimality gap tolerance: 0.02
CPLEX> New value for emphasis for MIP optimization: 1
CPLEX> New value for integrality tolerance: 1e-12
CPLEX> New value for deterministic time limit in ticks: 50000
CPLEX> Problem 'C:\Users\llavin\Desktop\test826\logs\tmpddnp6c94.pyomo.lp' read.
Read time = 0.45 sec. (28.91 ticks)
CPLEX> Problem name         : C:\Users\llavin\Desktop\test826\logs\tmpddnp6c94.pyomo.lp
Objective sense      : Maximize
Variables            :  107803  [Nneg: 1,  Box: 44062,  Free: 8928,
                                 Binary: 54812]
Objective nonzeros   :   17380
Linear constraints   :  246963  [Less: 82886,  Greater: 118460,  Equal: 45617]
  Nonzeros           :  620645
  RHS nonzeros       :  134921

Variables            : Min LB: -5000.000        Max UB: 1000000.       
Objective nonzeros   : Min   : 0.001000000      Max   : 208.3333       
Linear constraints   :
  Nonzeros           : Min   : 0.001000000      Max   : 1000000.       
  RHS nonzeros       : Min   : 0.001000000      Max   : 1000000.       
CPLEX> CPXPARAM_Parallel                                -1
CPXPARAM_Emphasis_MIP                            1
CPXPARAM_DetTimeLimit                            50000
CPXPARAM_MIP_Tolerances_MIPGap                   0.02
CPXPARAM_MIP_Tolerances_Integrality              9.9999999999999998e-13
Tried aggregator 3 times.
MIP Presolve eliminated 181707 rows and 41636 columns.
MIP Presolve added 6048 rows and 0 columns.
MIP Presolve modified 50242 coefficients.
Aggregator did 25820 substitutions.
Reduced MIP has 45484 rows, 38715 columns, and 146925 nonzeros.
Reduced MIP has 15228 binaries, 0 generals, 0 SOSs, and 0 indicators.
Presolve time = 0.58 sec. (392.91 ticks)
Probing fixed 827 vars, tightened 10879 bounds.
Probing time = 0.36 sec. (15.11 ticks)
Tried aggregator 2 times.
MIP Presolve eliminated 1852 rows and 1654 columns.
MIP Presolve modified 10368 coefficients.
Aggregator did 48 substitutions.
Reduced MIP has 43584 rows, 37013 columns, and 139654 nonzeros.
Reduced MIP has 14401 binaries, 0 generals, 0 SOSs, and 0 indicators.
Presolve time = 0.20 sec. (209.26 ticks)
Probing fixed 1 vars, tightened 1212 bounds.
Probing time = 0.47 sec. (17.24 ticks)
Clique table members: 81145.
MIP emphasis: integer feasibility.
MIP search method: dynamic search.
Parallel mode: opportunistic, using up to 32 threads.
Root relaxation solution time = 0.76 sec. (1589.51 ticks)

        Nodes                                         Cuts/
   Node  Left     Objective  IInf  Best Integer    Best Bound    ItCnt     Gap

      0     0        0.0000     3                      0.0000     8435         
      0     0        0.0000     2                    Fract: 1     8436         
*     0+    0                            0.0000        0.0000             0.00%
      0     0        cutoff              0.0000        0.0000     8436    0.00%
Elapsed time = 3.34 sec. (2919.11 ticks, tree = 0.01 MB, solutions = 1)

Gomory fractional cuts applied:  1

Root node processing (before b&c):
  Real time             =    3.38 sec. (2922.75 ticks)
Parallel b&c, 32 threads:
  Real time             =    0.00 sec. (0.00 ticks)
  Sync time (average)   =    0.00 sec.
  Wait time (average)   =    0.00 sec.
                          ------------
Total (root+branch&cut) =    3.38 sec. (2922.75 ticks)

Solution pool: 1 solution saved.

MIP - Integer optimal solution:  Objective =  0.0000000000e+00
Solution time =    3.41 sec.  Iterations = 8436  Nodes = 0
Deterministic time = 2923.05 ticks  (857.96 ticks/sec)

CPLEX> Incumbent solution written to file 'C:\Users\llavin\Desktop\test826\logs\tmp50gwildb.cplex.sol'.
CPLEX> NOTE: no warmstart specified for MIP iteration, default behavior is true
NOTE: resolving with all competitive generators using storage-only solution to warmstart
Solving...

Welcome to IBM(R) ILOG(R) CPLEX(R) Interactive Optimizer 12.9.0.0
  with Simplex, Mixed Integer & Barrier Optimizers
5725-A06 5725-A29 5724-Y48 5724-Y49 5724-Y54 5724-Y55 5655-Y21
Copyright IBM Corp. 1988, 2019.  All Rights Reserved.

Type 'help' for a list of available commands.
Type 'help' followed by a command name for more
information on commands.

CPLEX> Logfile 'cplex.log' closed.
Logfile 'C:\Users\llavin\Desktop\test826\logs\tmpv6k4wz7e.cplex.log' open.
CPLEX> New value for parallel optimization mode: -1
CPLEX> New value for mixed integer optimality gap tolerance: 0.02
CPLEX> New value for emphasis for MIP optimization: 1
CPLEX> New value for integrality tolerance: 1e-12
CPLEX> New value for deterministic time limit in ticks: 50000
CPLEX> Problem 'C:\Users\llavin\Desktop\test826\logs\tmp3umcu7_d.pyomo.lp' read.
Read time = 0.47 sec. (28.95 ticks)
CPLEX> MIP start file 'C:\Users\llavin\Desktop\test826\logs\tmpyl474fvy.cplex.mst' read.
CPLEX> Problem name         : C:\Users\llavin\Desktop\test826\logs\tmp3umcu7_d.pyomo.lp
Objective sense      : Maximize
Variables            :  109243  [Nneg: 1,  Box: 45502,  Free: 8928,
                                 Binary: 54812]
Objective nonzeros   :   18773
Linear constraints   :  246963  [Less: 82886,  Greater: 118460,  Equal: 45617]
  Nonzeros           :  620645
  RHS nonzeros       :  134921

Variables            : Min LB: -5000.000        Max UB: 1000000.       
Objective nonzeros   : Min   : 0.001000000      Max   : 208.3333       
Linear constraints   :
  Nonzeros           : Min   : 0.001000000      Max   : 1000000.       
  RHS nonzeros       : Min   : 0.001000000      Max   : 1000000.       
CPLEX> CPXPARAM_Parallel                                -1
CPXPARAM_Emphasis_MIP                            1
CPXPARAM_DetTimeLimit                            50000
CPXPARAM_MIP_Tolerances_MIPGap                   0.02
CPXPARAM_MIP_Tolerances_Integrality              9.9999999999999998e-13
Warning:  No solution found from 1 MIP starts.
Retaining values of one MIP start for possible repair.
Tried aggregator 3 times.
MIP Presolve eliminated 181707 rows and 43076 columns.
MIP Presolve added 6048 rows and 0 columns.
MIP Presolve modified 50242 coefficients.
Aggregator did 25820 substitutions.
Reduced MIP has 45484 rows, 38715 columns, and 146925 nonzeros.
Reduced MIP has 15228 binaries, 0 generals, 0 SOSs, and 0 indicators.
Presolve time = 0.56 sec. (393.67 ticks)
Probing fixed 827 vars, tightened 10879 bounds.
Probing time = 0.36 sec. (15.11 ticks)
Tried aggregator 2 times.
MIP Presolve eliminated 1852 rows and 1654 columns.
MIP Presolve modified 10368 coefficients.
Aggregator did 48 substitutions.
Reduced MIP has 43584 rows, 37013 columns, and 139654 nonzeros.
Reduced MIP has 14401 binaries, 0 generals, 0 SOSs, and 0 indicators.
Presolve time = 0.19 sec. (209.27 ticks)
Probing fixed 1 vars, tightened 1212 bounds.
Probing time = 0.47 sec. (17.24 ticks)
Clique table members: 81145.
MIP emphasis: integer feasibility.
MIP search method: dynamic search.
Parallel mode: opportunistic, using up to 32 threads.
Root relaxation solution time = 0.92 sec. (1765.86 ticks)

        Nodes                                         Cuts/
   Node  Left     Objective  IInf  Best Integer    Best Bound    ItCnt     Gap

      0     0    13585.0871   503                  13585.0871     9143         
*     0+    0                            0.0000    13585.0871              --- 
      0     0    13465.8306   291        0.0000     Cuts: 119     9206     --- 
      0     0    13465.8306   331        0.0000     Cuts: 213     9348     --- 
      0     0    13465.8306   342        0.0000     Cuts: 417     9557     --- 
Repair heuristic found nothing.
      0     4    13248.6118   332        0.0000    13465.8306     9570     --- 
Elapsed time = 8.86 sec. (5274.12 ticks, tree = 0.02 MB, solutions = 1)
    454   187    12390.6832   311        0.0000    13465.8306    10452     --- 
    928   374    12766.6939   294        0.0000    13465.8306    11544     --- 
   1450   749    12982.7155   306        0.0000    13465.8306    13769     --- 
   1855  1030    12930.1074   287        0.0000    13465.8306    15285     --- 
   2263  1691    12982.7155   266        0.0000    13465.8306    18795     --- 
   2797  1593    12714.3403   272        0.0000    13465.8306    18353     --- 
   3247  2663    12241.3575   227        0.0000    13465.8306    23357     --- 
   3636  2433    12392.3460   237        0.0000    13465.8306    22593     --- 
   4020  2732    12525.0367   224        0.0000    13465.8306    23588     --- 
   5948  4635    12238.9484   133        0.0000    13465.8306    31141     --- 
Elapsed time = 28.81 sec. (8377.14 ticks, tree = 56.79 MB, solutions = 3)
   6996  5811        cutoff              0.0000    13465.8306    37940     --- 
   7264  6057        cutoff              0.0000      431.0852    59059     --- 

Cover cuts applied:  6
Implied bound cuts applied:  8
Flow cuts applied:  56
Mixed integer rounding cuts applied:  157
Lift and project cuts applied:  4
Gomory fractional cuts applied:  25

Root node processing (before b&c):
  Real time             =    6.45 sec. (5169.23 ticks)
Parallel b&c, 32 threads:
  Real time             =   35.75 sec. (10227.27 ticks)
  Sync time (average)   =    2.16 sec.
  Wait time (average)   =    0.36 sec.
                          ------------
Total (root+branch&cut) =   42.20 sec. (15396.51 ticks)

Solution pool: 3 solutions saved.

MIP - Integer optimal solution:  Objective =  8.9456732381e-08
Solution time =   42.23 sec.  Iterations = 59070  Nodes = 7273
Deterministic time = 15396.82 ticks  (364.56 ticks/sec)

CPLEX> Incumbent solution written to file 'C:\Users\llavin\Desktop\test826\logs\tmpj5yon3d_.cplex.sol'.
CPLEX> Exporting results... 
